NAME : random_7
COMMENT : 50 random nodes
TYPE : TSP
DIMENSION : 50
EDGE_WEIGHT_TYPE : EUC_2D
NODE_COORD_SECTION
1 289 68
2 334 96
3 276 562
4 443 481
5 212 836
6 638 795
7 594 441
8 850 479
9 50 550
10 532 701
11 424 531
12 274 412
13 361 546
14 509 174
15 331 861
16 144 93
17 97 548
18 697 85
19 973 937
20 27 998
21 324 654
22 15 422
23 886 338
24 853 955
25 970 607
26 857 336
27 811 12
28 74 967
29 118 424
30 523 112
31 757 824
32 414 383
33 995 587
34 293 223
35 897 239
36 561 661
37 433 570
38 17 383
39 218 964
40 683 387
41 983 467
42 128 519
43 151 823
44 73 840
45 388 658
46 886 827
47 197 207
48 17 561
49 294 400
50 347 967
EOF